7782
1 1 0 0 0 1 0 0 1 1 0 0 1 0 1 0 0 0 0 0 0 1 0 0 0 0 0 0 1 0 
0 0 9 0 0 0 0 1 1 1 14 14 1 1 28 21 21 14 21 14 21 5 5 5 5 5 5 8 8 8 8 8 9 9 0 14 14 5 5 28 28 12 21 0 14 9 9 14 28 28 28 5 9 14 5 9 9 1 14 5 12 14 0 28 9 5 14 5 12 12 